c Problem generated from carry-save[n-bit] multiplication circuit
c by Paul Purdom and Amr Sabry
c
c Circuit for product = 9001 [True,False,False,False,True,True,False,False,True,False,True,False,False,True]
c Variables for output [msb,...,lsb]: [492,491,486,481,476,471,466,461,456,451,446,441,437,367,294,221,148,75,36,21]
c Variables for first input [msb,...,lsb]: [13,12,11,10,9,8,7,6,5,4,3,2,1]
c Variables for second input [msb,...,lsb]: [20,19,18,17,16,15,14]
c
c
p cnf 492 1908
1 14 -21 0
1 -14 -21 0
-1 14 -21 0
-1 -14 21 0
2 14 -22 0
2 -14 -22 0
-2 14 -22 0
-2 -14 22 0
3 14 -23 0
3 -14 -23 0
-3 14 -23 0
-3 -14 23 0
4 14 -24 0
4 -14 -24 0
-4 14 -24 0
-4 -14 24 0
5 14 -25 0
5 -14 -25 0
-5 14 -25 0
-5 -14 25 0
6 14 -26 0
6 -14 -26 0
-6 14 -26 0
-6 -14 26 0
7 14 -27 0
7 -14 -27 0
-7 14 -27 0
-7 -14 27 0
8 14 -28 0
8 -14 -28 0
-8 14 -28 0
-8 -14 28 0
9 14 -29 0
9 -14 -29 0
-9 14 -29 0
-9 -14 29 0
10 14 -30 0
10 -14 -30 0
-10 14 -30 0
-10 -14 30 0
11 14 -31 0
11 -14 -31 0
-11 14 -31 0
-11 -14 31 0
12 14 -32 0
12 -14 -32 0
-12 14 -32 0
-12 -14 32 0
13 14 -33 0
13 -14 -33 0
-13 14 -33 0
-13 -14 33 0
1 15 -34 0
1 -15 -34 0
-1 15 -34 0
-1 -15 34 0
22 34 -35 0
22 -34 -35 0
-22 34 -35 0
-22 -34 35 0
22 34 -36 0
22 -34 36 0
-22 34 36 0
-22 -34 -36 0
2 15 -37 0
2 -15 -37 0
-2 15 -37 0
-2 -15 37 0
23 37 -38 0
23 -37 -38 0
-23 37 -38 0
-23 -37 38 0
23 37 -39 0
23 -37 39 0
-23 37 39 0
-23 -37 -39 0
3 15 -40 0
3 -15 -40 0
-3 15 -40 0
-3 -15 40 0
24 40 -41 0
24 -40 -41 0
-24 40 -41 0
-24 -40 41 0
24 40 -42 0
24 -40 42 0
-24 40 42 0
-24 -40 -42 0
4 15 -43 0
4 -15 -43 0
-4 15 -43 0
-4 -15 43 0
25 43 -44 0
25 -43 -44 0
-25 43 -44 0
-25 -43 44 0
25 43 -45 0
25 -43 45 0
-25 43 45 0
-25 -43 -45 0
5 15 -46 0
5 -15 -46 0
-5 15 -46 0
-5 -15 46 0
26 46 -47 0
26 -46 -47 0
-26 46 -47 0
-26 -46 47 0
26 46 -48 0
26 -46 48 0
-26 46 48 0
-26 -46 -48 0
6 15 -49 0
6 -15 -49 0
-6 15 -49 0
-6 -15 49 0
27 49 -50 0
27 -49 -50 0
-27 49 -50 0
-27 -49 50 0
27 49 -51 0
27 -49 51 0
-27 49 51 0
-27 -49 -51 0
7 15 -52 0
7 -15 -52 0
-7 15 -52 0
-7 -15 52 0
28 52 -53 0
28 -52 -53 0
-28 52 -53 0
-28 -52 53 0
28 52 -54 0
28 -52 54 0
-28 52 54 0
-28 -52 -54 0
8 15 -55 0
8 -15 -55 0
-8 15 -55 0
-8 -15 55 0
29 55 -56 0
29 -55 -56 0
-29 55 -56 0
-29 -55 56 0
29 55 -57 0
29 -55 57 0
-29 55 57 0
-29 -55 -57 0
9 15 -58 0
9 -15 -58 0
-9 15 -58 0
-9 -15 58 0
30 58 -59 0
30 -58 -59 0
-30 58 -59 0
-30 -58 59 0
30 58 -60 0
30 -58 60 0
-30 58 60 0
-30 -58 -60 0
10 15 -61 0
10 -15 -61 0
-10 15 -61 0
-10 -15 61 0
31 61 -62 0
31 -61 -62 0
-31 61 -62 0
-31 -61 62 0
31 61 -63 0
31 -61 63 0
-31 61 63 0
-31 -61 -63 0
11 15 -64 0
11 -15 -64 0
-11 15 -64 0
-11 -15 64 0
32 64 -65 0
32 -64 -65 0
-32 64 -65 0
-32 -64 65 0
32 64 -66 0
32 -64 66 0
-32 64 66 0
-32 -64 -66 0
12 15 -67 0
12 -15 -67 0
-12 15 -67 0
-12 -15 67 0
33 67 -68 0
33 -67 -68 0
-33 67 -68 0
-33 -67 68 0
33 67 -69 0
33 -67 69 0
-33 67 69 0
-33 -67 -69 0
13 15 -70 0
13 -15 -70 0
-13 15 -70 0
-13 -15 70 0
1 16 -71 0
1 -16 -71 0
-1 16 -71 0
-1 -16 71 0
39 71 -72 0
39 -71 -72 0
-39 71 -72 0
-39 -71 72 0
39 71 -73 0
39 -71 73 0
-39 71 73 0
-39 -71 -73 0
35 73 -74 0
35 -73 -74 0
-35 73 -74 0
-35 -73 74 0
35 73 -75 0
35 -73 75 0
-35 73 75 0
-35 -73 -75 0
72 74 -76 0
72 -74 76 0
-72 74 76 0
-72 -74 -76 0
2 16 -77 0
2 -16 -77 0
-2 16 -77 0
-2 -16 77 0
42 77 -78 0
42 -77 -78 0
-42 77 -78 0
-42 -77 78 0
42 77 -79 0
42 -77 79 0
-42 77 79 0
-42 -77 -79 0
38 79 -80 0
38 -79 -80 0
-38 79 -80 0
-38 -79 80 0
38 79 -81 0
38 -79 81 0
-38 79 81 0
-38 -79 -81 0
78 80 -82 0
78 -80 82 0
-78 80 82 0
-78 -80 -82 0
3 16 -83 0
3 -16 -83 0
-3 16 -83 0
-3 -16 83 0
45 83 -84 0
45 -83 -84 0
-45 83 -84 0
-45 -83 84 0
45 83 -85 0
45 -83 85 0
-45 83 85 0
-45 -83 -85 0
41 85 -86 0
41 -85 -86 0
-41 85 -86 0
-41 -85 86 0
41 85 -87 0
41 -85 87 0
-41 85 87 0
-41 -85 -87 0
84 86 -88 0
84 -86 88 0
-84 86 88 0
-84 -86 -88 0
4 16 -89 0
4 -16 -89 0
-4 16 -89 0
-4 -16 89 0
48 89 -90 0
48 -89 -90 0
-48 89 -90 0
-48 -89 90 0
48 89 -91 0
48 -89 91 0
-48 89 91 0
-48 -89 -91 0
44 91 -92 0
44 -91 -92 0
-44 91 -92 0
-44 -91 92 0
44 91 -93 0
44 -91 93 0
-44 91 93 0
-44 -91 -93 0
90 92 -94 0
90 -92 94 0
-90 92 94 0
-90 -92 -94 0
5 16 -95 0
5 -16 -95 0
-5 16 -95 0
-5 -16 95 0
51 95 -96 0
51 -95 -96 0
-51 95 -96 0
-51 -95 96 0
51 95 -97 0
51 -95 97 0
-51 95 97 0
-51 -95 -97 0
47 97 -98 0
47 -97 -98 0
-47 97 -98 0
-47 -97 98 0
47 97 -99 0
47 -97 99 0
-47 97 99 0
-47 -97 -99 0
96 98 -100 0
96 -98 100 0
-96 98 100 0
-96 -98 -100 0
6 16 -101 0
6 -16 -101 0
-6 16 -101 0
-6 -16 101 0
54 101 -102 0
54 -101 -102 0
-54 101 -102 0
-54 -101 102 0
54 101 -103 0
54 -101 103 0
-54 101 103 0
-54 -101 -103 0
50 103 -104 0
50 -103 -104 0
-50 103 -104 0
-50 -103 104 0
50 103 -105 0
50 -103 105 0
-50 103 105 0
-50 -103 -105 0
102 104 -106 0
102 -104 106 0
-102 104 106 0
-102 -104 -106 0
7 16 -107 0
7 -16 -107 0
-7 16 -107 0
-7 -16 107 0
57 107 -108 0
57 -107 -108 0
-57 107 -108 0
-57 -107 108 0
57 107 -109 0
57 -107 109 0
-57 107 109 0
-57 -107 -109 0
53 109 -110 0
53 -109 -110 0
-53 109 -110 0
-53 -109 110 0
53 109 -111 0
53 -109 111 0
-53 109 111 0
-53 -109 -111 0
108 110 -112 0
108 -110 112 0
-108 110 112 0
-108 -110 -112 0
8 16 -113 0
8 -16 -113 0
-8 16 -113 0
-8 -16 113 0
60 113 -114 0
60 -113 -114 0
-60 113 -114 0
-60 -113 114 0
60 113 -115 0
60 -113 115 0
-60 113 115 0
-60 -113 -115 0
56 115 -116 0
56 -115 -116 0
-56 115 -116 0
-56 -115 116 0
56 115 -117 0
56 -115 117 0
-56 115 117 0
-56 -115 -117 0
114 116 -118 0
114 -116 118 0
-114 116 118 0
-114 -116 -118 0
9 16 -119 0
9 -16 -119 0
-9 16 -119 0
-9 -16 119 0
63 119 -120 0
63 -119 -120 0
-63 119 -120 0
-63 -119 120 0
63 119 -121 0
63 -119 121 0
-63 119 121 0
-63 -119 -121 0
59 121 -122 0
59 -121 -122 0
-59 121 -122 0
-59 -121 122 0
59 121 -123 0
59 -121 123 0
-59 121 123 0
-59 -121 -123 0
120 122 -124 0
120 -122 124 0
-120 122 124 0
-120 -122 -124 0
10 16 -125 0
10 -16 -125 0
-10 16 -125 0
-10 -16 125 0
66 125 -126 0
66 -125 -126 0
-66 125 -126 0
-66 -125 126 0
66 125 -127 0
66 -125 127 0
-66 125 127 0
-66 -125 -127 0
62 127 -128 0
62 -127 -128 0
-62 127 -128 0
-62 -127 128 0
62 127 -129 0
62 -127 129 0
-62 127 129 0
-62 -127 -129 0
126 128 -130 0
126 -128 130 0
-126 128 130 0
-126 -128 -130 0
11 16 -131 0
11 -16 -131 0
-11 16 -131 0
-11 -16 131 0
69 131 -132 0
69 -131 -132 0
-69 131 -132 0
-69 -131 132 0
69 131 -133 0
69 -131 133 0
-69 131 133 0
-69 -131 -133 0
65 133 -134 0
65 -133 -134 0
-65 133 -134 0
-65 -133 134 0
65 133 -135 0
65 -133 135 0
-65 133 135 0
-65 -133 -135 0
132 134 -136 0
132 -134 136 0
-132 134 136 0
-132 -134 -136 0
12 16 -137 0
12 -16 -137 0
-12 16 -137 0
-12 -16 137 0
70 137 -138 0
70 -137 -138 0
-70 137 -138 0
-70 -137 138 0
70 137 -139 0
70 -137 139 0
-70 137 139 0
-70 -137 -139 0
68 139 -140 0
68 -139 -140 0
-68 139 -140 0
-68 -139 140 0
68 139 -141 0
68 -139 141 0
-68 139 141 0
-68 -139 -141 0
138 140 -142 0
138 -140 142 0
-138 140 142 0
-138 -140 -142 0
13 16 -143 0
13 -16 -143 0
-13 16 -143 0
-13 -16 143 0
1 17 -144 0
1 -17 -144 0
-1 17 -144 0
-1 -17 144 0
81 144 -145 0
81 -144 -145 0
-81 144 -145 0
-81 -144 145 0
81 144 -146 0
81 -144 146 0
-81 144 146 0
-81 -144 -146 0
76 146 -147 0
76 -146 -147 0
-76 146 -147 0
-76 -146 147 0
76 146 -148 0
76 -146 148 0
-76 146 148 0
-76 -146 -148 0
145 147 -149 0
145 -147 149 0
-145 147 149 0
-145 -147 -149 0
2 17 -150 0
2 -17 -150 0
-2 17 -150 0
-2 -17 150 0
87 150 -151 0
87 -150 -151 0
-87 150 -151 0
-87 -150 151 0
87 150 -152 0
87 -150 152 0
-87 150 152 0
-87 -150 -152 0
82 152 -153 0
82 -152 -153 0
-82 152 -153 0
-82 -152 153 0
82 152 -154 0
82 -152 154 0
-82 152 154 0
-82 -152 -154 0
151 153 -155 0
151 -153 155 0
-151 153 155 0
-151 -153 -155 0
3 17 -156 0
3 -17 -156 0
-3 17 -156 0
-3 -17 156 0
93 156 -157 0
93 -156 -157 0
-93 156 -157 0
-93 -156 157 0
93 156 -158 0
93 -156 158 0
-93 156 158 0
-93 -156 -158 0
88 158 -159 0
88 -158 -159 0
-88 158 -159 0
-88 -158 159 0
88 158 -160 0
88 -158 160 0
-88 158 160 0
-88 -158 -160 0
157 159 -161 0
157 -159 161 0
-157 159 161 0
-157 -159 -161 0
4 17 -162 0
4 -17 -162 0
-4 17 -162 0
-4 -17 162 0
99 162 -163 0
99 -162 -163 0
-99 162 -163 0
-99 -162 163 0
99 162 -164 0
99 -162 164 0
-99 162 164 0
-99 -162 -164 0
94 164 -165 0
94 -164 -165 0
-94 164 -165 0
-94 -164 165 0
94 164 -166 0
94 -164 166 0
-94 164 166 0
-94 -164 -166 0
163 165 -167 0
163 -165 167 0
-163 165 167 0
-163 -165 -167 0
5 17 -168 0
5 -17 -168 0
-5 17 -168 0
-5 -17 168 0
105 168 -169 0
105 -168 -169 0
-105 168 -169 0
-105 -168 169 0
105 168 -170 0
105 -168 170 0
-105 168 170 0
-105 -168 -170 0
100 170 -171 0
100 -170 -171 0
-100 170 -171 0
-100 -170 171 0
100 170 -172 0
100 -170 172 0
-100 170 172 0
-100 -170 -172 0
169 171 -173 0
169 -171 173 0
-169 171 173 0
-169 -171 -173 0
6 17 -174 0
6 -17 -174 0
-6 17 -174 0
-6 -17 174 0
111 174 -175 0
111 -174 -175 0
-111 174 -175 0
-111 -174 175 0
111 174 -176 0
111 -174 176 0
-111 174 176 0
-111 -174 -176 0
106 176 -177 0
106 -176 -177 0
-106 176 -177 0
-106 -176 177 0
106 176 -178 0
106 -176 178 0
-106 176 178 0
-106 -176 -178 0
175 177 -179 0
175 -177 179 0
-175 177 179 0
-175 -177 -179 0
7 17 -180 0
7 -17 -180 0
-7 17 -180 0
-7 -17 180 0
117 180 -181 0
117 -180 -181 0
-117 180 -181 0
-117 -180 181 0
117 180 -182 0
117 -180 182 0
-117 180 182 0
-117 -180 -182 0
112 182 -183 0
112 -182 -183 0
-112 182 -183 0
-112 -182 183 0
112 182 -184 0
112 -182 184 0
-112 182 184 0
-112 -182 -184 0
181 183 -185 0
181 -183 185 0
-181 183 185 0
-181 -183 -185 0
8 17 -186 0
8 -17 -186 0
-8 17 -186 0
-8 -17 186 0
123 186 -187 0
123 -186 -187 0
-123 186 -187 0
-123 -186 187 0
123 186 -188 0
123 -186 188 0
-123 186 188 0
-123 -186 -188 0
118 188 -189 0
118 -188 -189 0
-118 188 -189 0
-118 -188 189 0
118 188 -190 0
118 -188 190 0
-118 188 190 0
-118 -188 -190 0
187 189 -191 0
187 -189 191 0
-187 189 191 0
-187 -189 -191 0
9 17 -192 0
9 -17 -192 0
-9 17 -192 0
-9 -17 192 0
129 192 -193 0
129 -192 -193 0
-129 192 -193 0
-129 -192 193 0
129 192 -194 0
129 -192 194 0
-129 192 194 0
-129 -192 -194 0
124 194 -195 0
124 -194 -195 0
-124 194 -195 0
-124 -194 195 0
124 194 -196 0
124 -194 196 0
-124 194 196 0
-124 -194 -196 0
193 195 -197 0
193 -195 197 0
-193 195 197 0
-193 -195 -197 0
10 17 -198 0
10 -17 -198 0
-10 17 -198 0
-10 -17 198 0
135 198 -199 0
135 -198 -199 0
-135 198 -199 0
-135 -198 199 0
135 198 -200 0
135 -198 200 0
-135 198 200 0
-135 -198 -200 0
130 200 -201 0
130 -200 -201 0
-130 200 -201 0
-130 -200 201 0
130 200 -202 0
130 -200 202 0
-130 200 202 0
-130 -200 -202 0
199 201 -203 0
199 -201 203 0
-199 201 203 0
-199 -201 -203 0
11 17 -204 0
11 -17 -204 0
-11 17 -204 0
-11 -17 204 0
141 204 -205 0
141 -204 -205 0
-141 204 -205 0
-141 -204 205 0
141 204 -206 0
141 -204 206 0
-141 204 206 0
-141 -204 -206 0
136 206 -207 0
136 -206 -207 0
-136 206 -207 0
-136 -206 207 0
136 206 -208 0
136 -206 208 0
-136 206 208 0
-136 -206 -208 0
205 207 -209 0
205 -207 209 0
-205 207 209 0
-205 -207 -209 0
12 17 -210 0
12 -17 -210 0
-12 17 -210 0
-12 -17 210 0
143 210 -211 0
143 -210 -211 0
-143 210 -211 0
-143 -210 211 0
143 210 -212 0
143 -210 212 0
-143 210 212 0
-143 -210 -212 0
142 212 -213 0
142 -212 -213 0
-142 212 -213 0
-142 -212 213 0
142 212 -214 0
142 -212 214 0
-142 212 214 0
-142 -212 -214 0
211 213 -215 0
211 -213 215 0
-211 213 215 0
-211 -213 -215 0
13 17 -216 0
13 -17 -216 0
-13 17 -216 0
-13 -17 216 0
1 18 -217 0
1 -18 -217 0
-1 18 -217 0
-1 -18 217 0
154 217 -218 0
154 -217 -218 0
-154 217 -218 0
-154 -217 218 0
154 217 -219 0
154 -217 219 0
-154 217 219 0
-154 -217 -219 0
149 219 -220 0
149 -219 -220 0
-149 219 -220 0
-149 -219 220 0
149 219 -221 0
149 -219 221 0
-149 219 221 0
-149 -219 -221 0
218 220 -222 0
218 -220 222 0
-218 220 222 0
-218 -220 -222 0
2 18 -223 0
2 -18 -223 0
-2 18 -223 0
-2 -18 223 0
160 223 -224 0
160 -223 -224 0
-160 223 -224 0
-160 -223 224 0
160 223 -225 0
160 -223 225 0
-160 223 225 0
-160 -223 -225 0
155 225 -226 0
155 -225 -226 0
-155 225 -226 0
-155 -225 226 0
155 225 -227 0
155 -225 227 0
-155 225 227 0
-155 -225 -227 0
224 226 -228 0
224 -226 228 0
-224 226 228 0
-224 -226 -228 0
3 18 -229 0
3 -18 -229 0
-3 18 -229 0
-3 -18 229 0
166 229 -230 0
166 -229 -230 0
-166 229 -230 0
-166 -229 230 0
166 229 -231 0
166 -229 231 0
-166 229 231 0
-166 -229 -231 0
161 231 -232 0
161 -231 -232 0
-161 231 -232 0
-161 -231 232 0
161 231 -233 0
161 -231 233 0
-161 231 233 0
-161 -231 -233 0
230 232 -234 0
230 -232 234 0
-230 232 234 0
-230 -232 -234 0
4 18 -235 0
4 -18 -235 0
-4 18 -235 0
-4 -18 235 0
172 235 -236 0
172 -235 -236 0
-172 235 -236 0
-172 -235 236 0
172 235 -237 0
172 -235 237 0
-172 235 237 0
-172 -235 -237 0
167 237 -238 0
167 -237 -238 0
-167 237 -238 0
-167 -237 238 0
167 237 -239 0
167 -237 239 0
-167 237 239 0
-167 -237 -239 0
236 238 -240 0
236 -238 240 0
-236 238 240 0
-236 -238 -240 0
5 18 -241 0
5 -18 -241 0
-5 18 -241 0
-5 -18 241 0
178 241 -242 0
178 -241 -242 0
-178 241 -242 0
-178 -241 242 0
178 241 -243 0
178 -241 243 0
-178 241 243 0
-178 -241 -243 0
173 243 -244 0
173 -243 -244 0
-173 243 -244 0
-173 -243 244 0
173 243 -245 0
173 -243 245 0
-173 243 245 0
-173 -243 -245 0
242 244 -246 0
242 -244 246 0
-242 244 246 0
-242 -244 -246 0
6 18 -247 0
6 -18 -247 0
-6 18 -247 0
-6 -18 247 0
184 247 -248 0
184 -247 -248 0
-184 247 -248 0
-184 -247 248 0
184 247 -249 0
184 -247 249 0
-184 247 249 0
-184 -247 -249 0
179 249 -250 0
179 -249 -250 0
-179 249 -250 0
-179 -249 250 0
179 249 -251 0
179 -249 251 0
-179 249 251 0
-179 -249 -251 0
248 250 -252 0
248 -250 252 0
-248 250 252 0
-248 -250 -252 0
7 18 -253 0
7 -18 -253 0
-7 18 -253 0
-7 -18 253 0
190 253 -254 0
190 -253 -254 0
-190 253 -254 0
-190 -253 254 0
190 253 -255 0
190 -253 255 0
-190 253 255 0
-190 -253 -255 0
185 255 -256 0
185 -255 -256 0
-185 255 -256 0
-185 -255 256 0
185 255 -257 0
185 -255 257 0
-185 255 257 0
-185 -255 -257 0
254 256 -258 0
254 -256 258 0
-254 256 258 0
-254 -256 -258 0
8 18 -259 0
8 -18 -259 0
-8 18 -259 0
-8 -18 259 0
196 259 -260 0
196 -259 -260 0
-196 259 -260 0
-196 -259 260 0
196 259 -261 0
196 -259 261 0
-196 259 261 0
-196 -259 -261 0
191 261 -262 0
191 -261 -262 0
-191 261 -262 0
-191 -261 262 0
191 261 -263 0
191 -261 263 0
-191 261 263 0
-191 -261 -263 0
260 262 -264 0
260 -262 264 0
-260 262 264 0
-260 -262 -264 0
9 18 -265 0
9 -18 -265 0
-9 18 -265 0
-9 -18 265 0
202 265 -266 0
202 -265 -266 0
-202 265 -266 0
-202 -265 266 0
202 265 -267 0
202 -265 267 0
-202 265 267 0
-202 -265 -267 0
197 267 -268 0
197 -267 -268 0
-197 267 -268 0
-197 -267 268 0
197 267 -269 0
197 -267 269 0
-197 267 269 0
-197 -267 -269 0
266 268 -270 0
266 -268 270 0
-266 268 270 0
-266 -268 -270 0
10 18 -271 0
10 -18 -271 0
-10 18 -271 0
-10 -18 271 0
208 271 -272 0
208 -271 -272 0
-208 271 -272 0
-208 -271 272 0
208 271 -273 0
208 -271 273 0
-208 271 273 0
-208 -271 -273 0
203 273 -274 0
203 -273 -274 0
-203 273 -274 0
-203 -273 274 0
203 273 -275 0
203 -273 275 0
-203 273 275 0
-203 -273 -275 0
272 274 -276 0
272 -274 276 0
-272 274 276 0
-272 -274 -276 0
11 18 -277 0
11 -18 -277 0
-11 18 -277 0
-11 -18 277 0
214 277 -278 0
214 -277 -278 0
-214 277 -278 0
-214 -277 278 0
214 277 -279 0
214 -277 279 0
-214 277 279 0
-214 -277 -279 0
209 279 -280 0
209 -279 -280 0
-209 279 -280 0
-209 -279 280 0
209 279 -281 0
209 -279 281 0
-209 279 281 0
-209 -279 -281 0
278 280 -282 0
278 -280 282 0
-278 280 282 0
-278 -280 -282 0
12 18 -283 0
12 -18 -283 0
-12 18 -283 0
-12 -18 283 0
216 283 -284 0
216 -283 -284 0
-216 283 -284 0
-216 -283 284 0
216 283 -285 0
216 -283 285 0
-216 283 285 0
-216 -283 -285 0
215 285 -286 0
215 -285 -286 0
-215 285 -286 0
-215 -285 286 0
215 285 -287 0
215 -285 287 0
-215 285 287 0
-215 -285 -287 0
284 286 -288 0
284 -286 288 0
-284 286 288 0
-284 -286 -288 0
13 18 -289 0
13 -18 -289 0
-13 18 -289 0
-13 -18 289 0
1 19 -290 0
1 -19 -290 0
-1 19 -290 0
-1 -19 290 0
227 290 -291 0
227 -290 -291 0
-227 290 -291 0
-227 -290 291 0
227 290 -292 0
227 -290 292 0
-227 290 292 0
-227 -290 -292 0
222 292 -293 0
222 -292 -293 0
-222 292 -293 0
-222 -292 293 0
222 292 -294 0
222 -292 294 0
-222 292 294 0
-222 -292 -294 0
291 293 -295 0
291 -293 295 0
-291 293 295 0
-291 -293 -295 0
2 19 -296 0
2 -19 -296 0
-2 19 -296 0
-2 -19 296 0
233 296 -297 0
233 -296 -297 0
-233 296 -297 0
-233 -296 297 0
233 296 -298 0
233 -296 298 0
-233 296 298 0
-233 -296 -298 0
228 298 -299 0
228 -298 -299 0
-228 298 -299 0
-228 -298 299 0
228 298 -300 0
228 -298 300 0
-228 298 300 0
-228 -298 -300 0
297 299 -301 0
297 -299 301 0
-297 299 301 0
-297 -299 -301 0
3 19 -302 0
3 -19 -302 0
-3 19 -302 0
-3 -19 302 0
239 302 -303 0
239 -302 -303 0
-239 302 -303 0
-239 -302 303 0
239 302 -304 0
239 -302 304 0
-239 302 304 0
-239 -302 -304 0
234 304 -305 0
234 -304 -305 0
-234 304 -305 0
-234 -304 305 0
234 304 -306 0
234 -304 306 0
-234 304 306 0
-234 -304 -306 0
303 305 -307 0
303 -305 307 0
-303 305 307 0
-303 -305 -307 0
4 19 -308 0
4 -19 -308 0
-4 19 -308 0
-4 -19 308 0
245 308 -309 0
245 -308 -309 0
-245 308 -309 0
-245 -308 309 0
245 308 -310 0
245 -308 310 0
-245 308 310 0
-245 -308 -310 0
240 310 -311 0
240 -310 -311 0
-240 310 -311 0
-240 -310 311 0
240 310 -312 0
240 -310 312 0
-240 310 312 0
-240 -310 -312 0
309 311 -313 0
309 -311 313 0
-309 311 313 0
-309 -311 -313 0
5 19 -314 0
5 -19 -314 0
-5 19 -314 0
-5 -19 314 0
251 314 -315 0
251 -314 -315 0
-251 314 -315 0
-251 -314 315 0
251 314 -316 0
251 -314 316 0
-251 314 316 0
-251 -314 -316 0
246 316 -317 0
246 -316 -317 0
-246 316 -317 0
-246 -316 317 0
246 316 -318 0
246 -316 318 0
-246 316 318 0
-246 -316 -318 0
315 317 -319 0
315 -317 319 0
-315 317 319 0
-315 -317 -319 0
6 19 -320 0
6 -19 -320 0
-6 19 -320 0
-6 -19 320 0
257 320 -321 0
257 -320 -321 0
-257 320 -321 0
-257 -320 321 0
257 320 -322 0
257 -320 322 0
-257 320 322 0
-257 -320 -322 0
252 322 -323 0
252 -322 -323 0
-252 322 -323 0
-252 -322 323 0
252 322 -324 0
252 -322 324 0
-252 322 324 0
-252 -322 -324 0
321 323 -325 0
321 -323 325 0
-321 323 325 0
-321 -323 -325 0
7 19 -326 0
7 -19 -326 0
-7 19 -326 0
-7 -19 326 0
263 326 -327 0
263 -326 -327 0
-263 326 -327 0
-263 -326 327 0
263 326 -328 0
263 -326 328 0
-263 326 328 0
-263 -326 -328 0
258 328 -329 0
258 -328 -329 0
-258 328 -329 0
-258 -328 329 0
258 328 -330 0
258 -328 330 0
-258 328 330 0
-258 -328 -330 0
327 329 -331 0
327 -329 331 0
-327 329 331 0
-327 -329 -331 0
8 19 -332 0
8 -19 -332 0
-8 19 -332 0
-8 -19 332 0
269 332 -333 0
269 -332 -333 0
-269 332 -333 0
-269 -332 333 0
269 332 -334 0
269 -332 334 0
-269 332 334 0
-269 -332 -334 0
264 334 -335 0
264 -334 -335 0
-264 334 -335 0
-264 -334 335 0
264 334 -336 0
264 -334 336 0
-264 334 336 0
-264 -334 -336 0
333 335 -337 0
333 -335 337 0
-333 335 337 0
-333 -335 -337 0
9 19 -338 0
9 -19 -338 0
-9 19 -338 0
-9 -19 338 0
275 338 -339 0
275 -338 -339 0
-275 338 -339 0
-275 -338 339 0
275 338 -340 0
275 -338 340 0
-275 338 340 0
-275 -338 -340 0
270 340 -341 0
270 -340 -341 0
-270 340 -341 0
-270 -340 341 0
270 340 -342 0
270 -340 342 0
-270 340 342 0
-270 -340 -342 0
339 341 -343 0
339 -341 343 0
-339 341 343 0
-339 -341 -343 0
10 19 -344 0
10 -19 -344 0
-10 19 -344 0
-10 -19 344 0
281 344 -345 0
281 -344 -345 0
-281 344 -345 0
-281 -344 345 0
281 344 -346 0
281 -344 346 0
-281 344 346 0
-281 -344 -346 0
276 346 -347 0
276 -346 -347 0
-276 346 -347 0
-276 -346 347 0
276 346 -348 0
276 -346 348 0
-276 346 348 0
-276 -346 -348 0
345 347 -349 0
345 -347 349 0
-345 347 349 0
-345 -347 -349 0
11 19 -350 0
11 -19 -350 0
-11 19 -350 0
-11 -19 350 0
287 350 -351 0
287 -350 -351 0
-287 350 -351 0
-287 -350 351 0
287 350 -352 0
287 -350 352 0
-287 350 352 0
-287 -350 -352 0
282 352 -353 0
282 -352 -353 0
-282 352 -353 0
-282 -352 353 0
282 352 -354 0
282 -352 354 0
-282 352 354 0
-282 -352 -354 0
351 353 -355 0
351 -353 355 0
-351 353 355 0
-351 -353 -355 0
12 19 -356 0
12 -19 -356 0
-12 19 -356 0
-12 -19 356 0
289 356 -357 0
289 -356 -357 0
-289 356 -357 0
-289 -356 357 0
289 356 -358 0
289 -356 358 0
-289 356 358 0
-289 -356 -358 0
288 358 -359 0
288 -358 -359 0
-288 358 -359 0
-288 -358 359 0
288 358 -360 0
288 -358 360 0
-288 358 360 0
-288 -358 -360 0
357 359 -361 0
357 -359 361 0
-357 359 361 0
-357 -359 -361 0
13 19 -362 0
13 -19 -362 0
-13 19 -362 0
-13 -19 362 0
1 20 -363 0
1 -20 -363 0
-1 20 -363 0
-1 -20 363 0
300 363 -364 0
300 -363 -364 0
-300 363 -364 0
-300 -363 364 0
300 363 -365 0
300 -363 365 0
-300 363 365 0
-300 -363 -365 0
295 365 -366 0
295 -365 -366 0
-295 365 -366 0
-295 -365 366 0
295 365 -367 0
295 -365 367 0
-295 365 367 0
-295 -365 -367 0
364 366 -368 0
364 -366 368 0
-364 366 368 0
-364 -366 -368 0
2 20 -369 0
2 -20 -369 0
-2 20 -369 0
-2 -20 369 0
306 369 -370 0
306 -369 -370 0
-306 369 -370 0
-306 -369 370 0
306 369 -371 0
306 -369 371 0
-306 369 371 0
-306 -369 -371 0
301 371 -372 0
301 -371 -372 0
-301 371 -372 0
-301 -371 372 0
301 371 -373 0
301 -371 373 0
-301 371 373 0
-301 -371 -373 0
370 372 -374 0
370 -372 374 0
-370 372 374 0
-370 -372 -374 0
3 20 -375 0
3 -20 -375 0
-3 20 -375 0
-3 -20 375 0
312 375 -376 0
312 -375 -376 0
-312 375 -376 0
-312 -375 376 0
312 375 -377 0
312 -375 377 0
-312 375 377 0
-312 -375 -377 0
307 377 -378 0
307 -377 -378 0
-307 377 -378 0
-307 -377 378 0
307 377 -379 0
307 -377 379 0
-307 377 379 0
-307 -377 -379 0
376 378 -380 0
376 -378 380 0
-376 378 380 0
-376 -378 -380 0
4 20 -381 0
4 -20 -381 0
-4 20 -381 0
-4 -20 381 0
318 381 -382 0
318 -381 -382 0
-318 381 -382 0
-318 -381 382 0
318 381 -383 0
318 -381 383 0
-318 381 383 0
-318 -381 -383 0
313 383 -384 0
313 -383 -384 0
-313 383 -384 0
-313 -383 384 0
313 383 -385 0
313 -383 385 0
-313 383 385 0
-313 -383 -385 0
382 384 -386 0
382 -384 386 0
-382 384 386 0
-382 -384 -386 0
5 20 -387 0
5 -20 -387 0
-5 20 -387 0
-5 -20 387 0
324 387 -388 0
324 -387 -388 0
-324 387 -388 0
-324 -387 388 0
324 387 -389 0
324 -387 389 0
-324 387 389 0
-324 -387 -389 0
319 389 -390 0
319 -389 -390 0
-319 389 -390 0
-319 -389 390 0
319 389 -391 0
319 -389 391 0
-319 389 391 0
-319 -389 -391 0
388 390 -392 0
388 -390 392 0
-388 390 392 0
-388 -390 -392 0
6 20 -393 0
6 -20 -393 0
-6 20 -393 0
-6 -20 393 0
330 393 -394 0
330 -393 -394 0
-330 393 -394 0
-330 -393 394 0
330 393 -395 0
330 -393 395 0
-330 393 395 0
-330 -393 -395 0
325 395 -396 0
325 -395 -396 0
-325 395 -396 0
-325 -395 396 0
325 395 -397 0
325 -395 397 0
-325 395 397 0
-325 -395 -397 0
394 396 -398 0
394 -396 398 0
-394 396 398 0
-394 -396 -398 0
7 20 -399 0
7 -20 -399 0
-7 20 -399 0
-7 -20 399 0
336 399 -400 0
336 -399 -400 0
-336 399 -400 0
-336 -399 400 0
336 399 -401 0
336 -399 401 0
-336 399 401 0
-336 -399 -401 0
331 401 -402 0
331 -401 -402 0
-331 401 -402 0
-331 -401 402 0
331 401 -403 0
331 -401 403 0
-331 401 403 0
-331 -401 -403 0
400 402 -404 0
400 -402 404 0
-400 402 404 0
-400 -402 -404 0
8 20 -405 0
8 -20 -405 0
-8 20 -405 0
-8 -20 405 0
342 405 -406 0
342 -405 -406 0
-342 405 -406 0
-342 -405 406 0
342 405 -407 0
342 -405 407 0
-342 405 407 0
-342 -405 -407 0
337 407 -408 0
337 -407 -408 0
-337 407 -408 0
-337 -407 408 0
337 407 -409 0
337 -407 409 0
-337 407 409 0
-337 -407 -409 0
406 408 -410 0
406 -408 410 0
-406 408 410 0
-406 -408 -410 0
9 20 -411 0
9 -20 -411 0
-9 20 -411 0
-9 -20 411 0
348 411 -412 0
348 -411 -412 0
-348 411 -412 0
-348 -411 412 0
348 411 -413 0
348 -411 413 0
-348 411 413 0
-348 -411 -413 0
343 413 -414 0
343 -413 -414 0
-343 413 -414 0
-343 -413 414 0
343 413 -415 0
343 -413 415 0
-343 413 415 0
-343 -413 -415 0
412 414 -416 0
412 -414 416 0
-412 414 416 0
-412 -414 -416 0
10 20 -417 0
10 -20 -417 0
-10 20 -417 0
-10 -20 417 0
354 417 -418 0
354 -417 -418 0
-354 417 -418 0
-354 -417 418 0
354 417 -419 0
354 -417 419 0
-354 417 419 0
-354 -417 -419 0
349 419 -420 0
349 -419 -420 0
-349 419 -420 0
-349 -419 420 0
349 419 -421 0
349 -419 421 0
-349 419 421 0
-349 -419 -421 0
418 420 -422 0
418 -420 422 0
-418 420 422 0
-418 -420 -422 0
11 20 -423 0
11 -20 -423 0
-11 20 -423 0
-11 -20 423 0
360 423 -424 0
360 -423 -424 0
-360 423 -424 0
-360 -423 424 0
360 423 -425 0
360 -423 425 0
-360 423 425 0
-360 -423 -425 0
355 425 -426 0
355 -425 -426 0
-355 425 -426 0
-355 -425 426 0
355 425 -427 0
355 -425 427 0
-355 425 427 0
-355 -425 -427 0
424 426 -428 0
424 -426 428 0
-424 426 428 0
-424 -426 -428 0
12 20 -429 0
12 -20 -429 0
-12 20 -429 0
-12 -20 429 0
362 429 -430 0
362 -429 -430 0
-362 429 -430 0
-362 -429 430 0
362 429 -431 0
362 -429 431 0
-362 429 431 0
-362 -429 -431 0
361 431 -432 0
361 -431 -432 0
-361 431 -432 0
-361 -431 432 0
361 431 -433 0
361 -431 433 0
-361 431 433 0
-361 -431 -433 0
430 432 -434 0
430 -432 434 0
-430 432 434 0
-430 -432 -434 0
13 20 -435 0
13 -20 -435 0
-13 20 -435 0
-13 -20 435 0
368 373 -436 0
368 -373 -436 0
-368 373 -436 0
-368 -373 436 0
368 373 -437 0
368 -373 437 0
-368 373 437 0
-368 -373 -437 0
374 379 -438 0
374 -379 -438 0
-374 379 -438 0
-374 -379 438 0
374 379 -439 0
374 -379 439 0
-374 379 439 0
-374 -379 -439 0
436 439 -440 0
436 -439 -440 0
-436 439 -440 0
-436 -439 440 0
436 439 -441 0
436 -439 441 0
-436 439 441 0
-436 -439 -441 0
438 440 -442 0
438 -440 442 0
-438 440 442 0
-438 -440 -442 0
380 385 -443 0
380 -385 -443 0
-380 385 -443 0
-380 -385 443 0
380 385 -444 0
380 -385 444 0
-380 385 444 0
-380 -385 -444 0
442 444 -445 0
442 -444 -445 0
-442 444 -445 0
-442 -444 445 0
442 444 -446 0
442 -444 446 0
-442 444 446 0
-442 -444 -446 0
443 445 -447 0
443 -445 447 0
-443 445 447 0
-443 -445 -447 0
386 391 -448 0
386 -391 -448 0
-386 391 -448 0
-386 -391 448 0
386 391 -449 0
386 -391 449 0
-386 391 449 0
-386 -391 -449 0
447 449 -450 0
447 -449 -450 0
-447 449 -450 0
-447 -449 450 0
447 449 -451 0
447 -449 451 0
-447 449 451 0
-447 -449 -451 0
448 450 -452 0
448 -450 452 0
-448 450 452 0
-448 -450 -452 0
392 397 -453 0
392 -397 -453 0
-392 397 -453 0
-392 -397 453 0
392 397 -454 0
392 -397 454 0
-392 397 454 0
-392 -397 -454 0
452 454 -455 0
452 -454 -455 0
-452 454 -455 0
-452 -454 455 0
452 454 -456 0
452 -454 456 0
-452 454 456 0
-452 -454 -456 0
453 455 -457 0
453 -455 457 0
-453 455 457 0
-453 -455 -457 0
398 403 -458 0
398 -403 -458 0
-398 403 -458 0
-398 -403 458 0
398 403 -459 0
398 -403 459 0
-398 403 459 0
-398 -403 -459 0
457 459 -460 0
457 -459 -460 0
-457 459 -460 0
-457 -459 460 0
457 459 -461 0
457 -459 461 0
-457 459 461 0
-457 -459 -461 0
458 460 -462 0
458 -460 462 0
-458 460 462 0
-458 -460 -462 0
404 409 -463 0
404 -409 -463 0
-404 409 -463 0
-404 -409 463 0
404 409 -464 0
404 -409 464 0
-404 409 464 0
-404 -409 -464 0
462 464 -465 0
462 -464 -465 0
-462 464 -465 0
-462 -464 465 0
462 464 -466 0
462 -464 466 0
-462 464 466 0
-462 -464 -466 0
463 465 -467 0
463 -465 467 0
-463 465 467 0
-463 -465 -467 0
410 415 -468 0
410 -415 -468 0
-410 415 -468 0
-410 -415 468 0
410 415 -469 0
410 -415 469 0
-410 415 469 0
-410 -415 -469 0
467 469 -470 0
467 -469 -470 0
-467 469 -470 0
-467 -469 470 0
467 469 -471 0
467 -469 471 0
-467 469 471 0
-467 -469 -471 0
468 470 -472 0
468 -470 472 0
-468 470 472 0
-468 -470 -472 0
416 421 -473 0
416 -421 -473 0
-416 421 -473 0
-416 -421 473 0
416 421 -474 0
416 -421 474 0
-416 421 474 0
-416 -421 -474 0
472 474 -475 0
472 -474 -475 0
-472 474 -475 0
-472 -474 475 0
472 474 -476 0
472 -474 476 0
-472 474 476 0
-472 -474 -476 0
473 475 -477 0
473 -475 477 0
-473 475 477 0
-473 -475 -477 0
422 427 -478 0
422 -427 -478 0
-422 427 -478 0
-422 -427 478 0
422 427 -479 0
422 -427 479 0
-422 427 479 0
-422 -427 -479 0
477 479 -480 0
477 -479 -480 0
-477 479 -480 0
-477 -479 480 0
477 479 -481 0
477 -479 481 0
-477 479 481 0
-477 -479 -481 0
478 480 -482 0
478 -480 482 0
-478 480 482 0
-478 -480 -482 0
428 433 -483 0
428 -433 -483 0
-428 433 -483 0
-428 -433 483 0
428 433 -484 0
428 -433 484 0
-428 433 484 0
-428 -433 -484 0
482 484 -485 0
482 -484 -485 0
-482 484 -485 0
-482 -484 485 0
482 484 -486 0
482 -484 486 0
-482 484 486 0
-482 -484 -486 0
483 485 -487 0
483 -485 487 0
-483 485 487 0
-483 -485 -487 0
434 435 -488 0
434 -435 -488 0
-434 435 -488 0
-434 -435 488 0
434 435 -489 0
434 -435 489 0
-434 435 489 0
-434 -435 -489 0
487 489 -490 0
487 -489 -490 0
-487 489 -490 0
-487 -489 490 0
487 489 -491 0
487 -489 491 0
-487 489 491 0
-487 -489 -491 0
488 490 -492 0
488 -490 492 0
-488 490 492 0
-488 -490 -492 0
21 0
-36 0
-75 0
148 0
-221 0
294 0
-367 0
-437 0
441 0
446 0
-451 0
-456 0
-461 0
466 0
-471 0
-476 0
-481 0
-486 0
-491 0
-492 0